Optimal - objective value 700.00000000
      0 C0000000             165                       0
      1 C0000001             258                       0
      2 C0000002              98                       0
      3 C0000003             106                       0
      4 C0000004             118                       0
      5 C0000005             126                       0
      6 C0000006             134                       0
      7 C0000007             142                       0
      8 C0000008             150                       0
      9 C0000009             180                       0
     10 C0000010             165                       0
     11 C0000011             258                       0
     12 C0000012              98                       0
     13 C0000013             106                       0
     14 C0000014             118                       0
     15 C0000015             126                       0
     16 C0000016             134                       0
     17 C0000017             142                       0
     18 C0000018             150                       0
     19 C0000019             180                       0
     20 C0000020            -155                      10
     21 C0000021            -258                       0
     22 C0000022             -98                       0
     23 C0000023            -106                       0
     24 C0000024            -118                       0
     25 C0000025            -126                       0
     26 C0000026            -134                       0
     27 C0000027            -140                      30
     28 C0000028            -150                      30
     29 C0000029            -180                      20
     30 C0000030             165                       0
     31 C0000031             258                       0
     32 C0000032              98                       0
     33 C0000033             106                       0
     34 C0000034             123                      30
     35 C0000035             135                      30
     36 C0000036             138                      30
     37 C0000037             142                       0
     38 C0000038             150                       0
     39 C0000039             180                       0
     40 C0000040               1                       0
     41 C0000041               1                       0
     42 C0000042               1                       0
     43 C0000043               1                       0
     44 C0000044               1                       0
     45 C0000045               1                       0
     46 C0000046               1                       0
     47 C0000047               1                       0
     48 C0000048               1                       0
     49 C0000049               1                       0
     50 C0000050               1                       0
     51 C0000051               1                       0
     52 C0000052               1                       0
     53 C0000053               1                       0
     54 C0000054               1                       0
     55 C0000055               1                       0
     56 C0000056               1                       0
     57 C0000057               1                       0
     58 C0000058               1                       0
     59 C0000059               1                       0
     60 C0000060               1                       0
     61 C0000061               1                       0
     62 C0000062               1                       0
     63 C0000063               1                       0
     64 C0000064               1                       0
     65 C0000065               1                       0
     66 C0000066               1                       0
     67 C0000067               1                       0
     68 C0000068               1                       0
     69 C0000069               1                       0
     70 C0000070               1                       0
     71 C0000071               1                       0
     72 C0000072               1                       0
     73 C0000073               1                       0
     74 C0000074               1                       0
     75 C0000075               1                       0
     76 C0000076               1                       0
     77 C0000077               1                       0
     78 C0000078               1                       0
     79 C0000079               1                       0
     80 C0000080               1                       0
     81 C0000081               1                       0
     82 C0000082               1                       0
     83 C0000083               1                       0
     84 C0000084               1                       0
     85 C0000085               1                       0
     86 C0000086               1                       0
     87 C0000087               1                       0
     88 C0000088               1                       0
     89 C0000089               1                       0
     90 C0000090               1                       0
     91 C0000091               1                       0
     92 C0000092               1                       0
     93 C0000093               1                       0
     94 C0000094               1                       0
     95 C0000095               1                       0
     96 C0000096               1                       0
     97 C0000097               1                       0
     98 C0000098               1                       0
     99 C0000099               1                       0
    100 C0000100               1                       0
    101 C0000101               1                       0
    102 C0000102               1                       0
    103 C0000103               1                       0
    104 C0000104               1                       0
    105 C0000105               1                       0
    106 C0000106               1                       0
    107 C0000107               1                       0
    108 C0000108               1                       0
    109 C0000109               1                       0
    110 C0000110               1                       0
    111 C0000111               1                       0
    112 C0000112               1                       0
    113 C0000113               1                       0
    114 C0000114               1                       0
    115 C0000115               1                       0
    116 C0000116               1                       0
    117 C0000117               1                       0
    118 C0000118               1                       0
    119 C0000119               1                       0
    120 C0000120               1                       0
    121 C0000121               1                       0
    122 C0000122               1                       0
    123 C0000123               1                       0
    124 C0000124               1                       0
    125 C0000125               1                       0
    126 C0000126               1                       0
    127 C0000127               1                       0
    128 C0000128               1                       0
    129 C0000129               1                       0
    130 C0000130            -907                       0
    131 C0000131             -67                       0
    132 C0000132             -59                       0
    133 C0000133             -47                       0
    134 C0000134             -39                       0
    135 C0000135             -31                       0
    136 C0000136             -23                       0
    137 C0000137             -15                       0
    138 C0000138            -985                      20
    139 C0000139             -93                       0
    140 C0000140            -160                       0
    141 C0000141            -152                       0
    142 C0000142            -140                       0
    143 C0000143            -132                       0
    144 C0000144            -124                       0
    145 C0000145            -116                       0
    146 C0000146            -108                       0
    147 C0000147             -78                       0
    148 C0000148            -933                       0
    149 C0000149            -840                       0
    150 C0000150            -992                       0
    151 C0000151            -980                       0
    152 C0000152            -972                       0
    153 C0000153            -964                       0
    154 C0000154            -956                       0
    155 C0000155            -948                       0
    156 C0000156            -918                       0
    157 C0000157            -941                       0
    158 C0000158            -848                       0
    159 C0000159              -8                       0
    160 C0000160            -988                       0
    161 C0000161            -980                       0
    162 C0000162            -972                       0
    163 C0000163            -964                       0
    164 C0000164            -956                       0
    165 C0000165            -926                       0
    166 C0000166            -953                       0
    167 C0000167            -860                       0
    168 C0000168             -20                       0
    169 C0000169             -12                       0
    170 C0000170            -992                      30
    171 C0000171            -984                       0
    172 C0000172            -976                       0
    173 C0000173            -968                       0
    174 C0000174            -938                       0
    175 C0000175            -961                       0
    176 C0000176            -868                       0
    177 C0000177             -28                       0
    178 C0000178             -20                       0
    179 C0000179              -8                       0
    180 C0000180            -992                      60
    181 C0000181            -984                       0
    182 C0000182            -976                       0
    183 C0000183            -946                       0
    184 C0000184            -969                       0
    185 C0000185            -876                       0
    186 C0000186             -36                       0
    187 C0000187             -28                       0
    188 C0000188             -16                       0
    189 C0000189              -8                       0
    190 C0000190            -992                      90
    191 C0000191            -984                       0
    192 C0000192            -954                       0
    193 C0000193            -977                       0
    194 C0000194            -884                       0
    195 C0000195             -44                       0
    196 C0000196             -36                       0
    197 C0000197             -24                       0
    198 C0000198             -16                       0
    199 C0000199              -8                       0
    200 C0000200            -992                      60
    201 C0000201            -962                       0
    202 C0000202            -985                      30
    203 C0000203            -892                       0
    204 C0000204             -52                       0
    205 C0000205             -44                       0
    206 C0000206             -32                       0
    207 C0000207             -24                       0
    208 C0000208             -16                       0
    209 C0000209              -8                       0
    210 C0000210            -970                       0
    211 C0000211             -15                       0
    212 C0000212            -922                       0
    213 C0000213             -82                       0
    214 C0000214             -74                       0
    215 C0000215             -62                       0
    216 C0000216             -54                       0
    217 C0000217             -46                       0
    218 C0000218             -38                       0
    219 C0000219             -30                       0
    220 C0000220 -2.2737368e-013                       1
      0 X0000000             165                       0
      1 X0000001             258                       0
      2 X0000002              98                       0
      3 X0000003             106                       0
      4 X0000004             118                       0
      5 X0000005             126                       0
      6 X0000006             134                       0
      7 X0000007             142                       0
      8 X0000008             150                       0
      9 X0000009             180                       0
     10 X0000010               0                      10
     11 X0000011               0                      10
     12 X0000012               0                      30
     13 X0000013               0                      30
     14 X0000014               5                       0
     15 X0000015               9                       0
     16 X0000016               4                       0
     17 X0000017               0                      30
     18 X0000018               0                      30
     19 X0000019               0                      30
     20 X0000020               1                       0
     21 X0000021               0                       0
     22 X0000022               0                       0
     23 X0000023               0                       0
     24 X0000024               0                       0
     25 X0000025               0                       0
     26 X0000026               0                       0
     27 X0000027               0                       0
     28 X0000028               1                   20000
     29 X0000029               0                       0
     30 X0000030               0                       0
     31 X0000031               0                       0
     32 X0000032               0                       0
     33 X0000033               0                       0
     34 X0000034               0                       0
     35 X0000035               0                       0
     36 X0000036               0                       0
     37 X0000037               0                       0
     38 X0000038               1                       0
     39 X0000039               1                       0
     40 X0000040               1                       0
     41 X0000041               1                       0
     42 X0000042               1                       0
     43 X0000043               1                       0
     44 X0000044               1                       0
     45 X0000045               1                       0
     46 X0000046               1                       0
     47 X0000047               1                       0
     48 X0000048               1                       0
     49 X0000049               0                       0
     50 X0000050               1                       0
     51 X0000051               1                       0
     52 X0000052               1                       0
     53 X0000053               1                       0
     54 X0000054               1                       0
     55 X0000055               1                       0
     56 X0000056               1                       0
     57 X0000057               1                       0
     58 X0000058               0                       0
     59 X0000059               0                       0
     60 X0000060               1                   30000
     61 X0000061               1                       0
     62 X0000062               1                       0
     63 X0000063               1                       0
     64 X0000064               1                       0
     65 X0000065               1                       0
     66 X0000066               1                       0
     67 X0000067               0                       0
     68 X0000068               0                       0
     69 X0000069               0                       0
     70 X0000070               1                   60000
     71 X0000071               1                       0
     72 X0000072               1                       0
     73 X0000073               1                       0
     74 X0000074               1                       0
     75 X0000075               1                       0
     76 X0000076               0                       0
     77 X0000077               0                       0
     78 X0000078               0                       0
     79 X0000079               0                       0
     80 X0000080               1                   90000
     81 X0000081               1                       0
     82 X0000082               1                       0
     83 X0000083               1                       0
     84 X0000084               1                       0
     85 X0000085               0                       0
     86 X0000086               0                       0
     87 X0000087               0                       0
     88 X0000088               0                       0
     89 X0000089               0                       0
     90 X0000090               1                   60000
     91 X0000091               1                       0
     92 X0000092               1                   30000
     93 X0000093               1                       0
     94 X0000094               0                       0
     95 X0000095               0                       0
     96 X0000096               0                       0
     97 X0000097               0                       0
     98 X0000098               0                       0
     99 X0000099               0                       0
    100 X0000100               1                       0
    101 X0000101               0                       0
    102 X0000102               1                       0
    103 X0000103               0                       0
    104 X0000104               0                       0
    105 X0000105               0                       0
    106 X0000106               0                       0
    107 X0000107               0                       0
    108 X0000108               0                       0
    109 X0000109               0                       0
    110 X0000110              10                       0
    111 X0000111               0                      10
    112 X0000112               0                      30
    113 X0000113               0                      30
    114 X0000114               0                      30
    115 X0000115               0                      30
    116 X0000116               0                      30
    117 X0000117               2                       0
    118 X0000118               0                       0
    119 X0000119               0                      10
    120 X0000120             700                       0
